100 4313
440 88 528 528 505 176 1010 101 1010 606 440 792 704 101 909 505 792 202 88 606 88 88 202 264 101 808 606 880 101 202 88 88 404 880 1010 808 101 707 404 101 202 404 1010 616 440 352 1010 528 303 505 606 440 176 440 264 606 909 303 707 264 528 707 88 505 303 1010 202 88 404 606 101 404 528 704 704 440 176 404 176 505 303 352 616 1010 528 404 202 303 1010 202 880 616 505 528 704 707 352 505 792 101 
710 142 852 852 560 284 1120 112 1120 672 710 1278 1136 112 1008 560 1278 224 142 672 142 142 224 426 112 896 672 1420 112 224 142 142 448 1420 1120 896 112 784 448 112 224 448 1120 994 710 568 1120 852 336 560 672 710 284 710 426 672 1008 336 784 426 852 784 142 560 336 1120 224 142 448 672 112 448 852 1136 1136 710 284 448 284 560 336 568 994 1120 852 448 224 336 1120 224 1420 994 560 852 1136 784 568 560 1278 112 
